101006
501001
501002
201000
201001
201002
201004
201006
202000
202002
202004
202005
202006
205000
205002
205004
205006
205008
206002
206004
206006
206008
206010
206012
206013
206014
209000
209002
209004
209006
201007
201008
202012
202016
202022
202020
205012
209010
202021
202018
401001
401005
302000
302001
302004
302007
302010
302011
302012
302013
301000
301004
303002
208002
201009
202019
206015
306008
401007
209012
206016
209014
501007
401008
101014
201003
